Maximize
F 

Subject to
F - 6y8 - 3y17 - 12y173 - 9y200 - 12y188 - 12y103 - 9y15 - 3y18 - 6y99 - 3y145 - 6y178 - 9y124 - 9y137 - 6y198 - 3y174 - 12y189 - 12y71 - 6y128 - 6y113 - 9y69 - 3y152 - 6y202 - 3y62 - 9y86 - 12y171 - 3y161 - 3y115 - 6y95 - 12y49 - 3y54 - 9y150 - 9y42 - 9y78 - 6y165 = 0

x32x178x1 + x32x124x1 + x32x152x1 + x32x202x1 + x32x171x1 + x32x161x1 + x32x115x1 + x32x95x1 + x32x54x1 + x32x42x1 + x32x78x1 
<= 1
x44x17x2 + x44x18x2 + x44x124x2 + x44x137x2 + x44x71x2 + x44x69x2 + x44x86x2 + x44x171x2 + x44x95x2 + x44x49x2 + x44x150x2 + x44x42x2 
<= 2
x32x178x3 + x32x198x3 + x32x174x3 + x32x71x3 + x32x128x3 + x32x113x3 + x32x69x3 + x32x202x3 + x32x62x3 + x32x115x3 + x32x49x3 + x32x54x3 + x32x150x3 + x32x78x3 + x32x165x3 
<= 1


- x8x15x2 - x8x18x2 - x8x124x2 - x8x137x2 - x8x71x2 - x8x86x2 - x8x171x2 - x8x95x2 - x8x49x2 - x8x42x2 
= 0



- x17x200x1 - x17x99x1 - x17x152x1 - x17x171x1 
= 0
x44x17x2 
- x17x0x2
- x17x69x2 - x17x171x2 - x17x150x2 
= 0



- x173x145x1 - x173x152x1 - x173x202x1 - x173x171x1 - x173x161x1 - x173x115x1 - x173x95x1 - x173x54x1 - x173x42x1 - x173x78x1 
= 0

- x173x86x2 - x173x171x2 - x173x95x2 - x173x49x2 - x173x150x2 - x173x42x2 
= 0


x17x200x1 
- x200x0x1
- x200x99x1 - x200x152x1 - x200x171x1 
= 0






- x188x99x3 - x188x174x3 - x188x69x3 - x188x150x3 
= 0


- x103x178x1 - x103x124x1 - x103x202x1 - x103x171x1 - x103x161x1 - x103x115x1 - x103x95x1 - x103x54x1 - x103x42x1 - x103x78x1 
= 0




x8x15x2 
- x15x0x2
- x15x18x2 - x15x124x2 - x15x137x2 - x15x71x2 - x15x86x2 - x15x95x2 - x15x49x2 - x15x42x2 
= 0

- x15x178x3 - x15x198x3 - x15x71x3 - x15x128x3 - x15x202x3 - x15x115x3 - x15x49x3 - x15x54x3 - x15x78x3 - x15x165x3 
= 0


x44x18x2 + x8x18x2 + x15x18x2 
- x18x0x2
- x18x124x2 - x18x137x2 - x18x71x2 - x18x49x2 - x18x42x2 
= 0


x17x99x1 + x200x99x1 
- x99x0x1

= 0

x188x99x3 
- x99x0x3
- x99x174x3 - x99x69x3 - x99x150x3 
= 0

x173x145x1 
- x145x0x1
- x145x152x1 - x145x171x1 - x145x42x1 - x145x78x1 
= 0


- x145x189x3 - x145x113x3 - x145x62x3 - x145x78x3 - x145x165x3 
= 0

x32x178x1 + x103x178x1 
- x178x0x1
- x178x124x1 - x178x202x1 - x178x161x1 - x178x54x1 - x178x78x1 
= 0

x32x178x3 + x15x178x3 
- x178x0x3
- x178x71x3 - x178x128x3 - x178x202x3 - x178x54x3 - x178x78x3 - x178x165x3 
= 0

x32x124x1 + x103x124x1 + x178x124x1 
- x124x0x1
- x124x202x1 - x124x161x1 - x124x54x1 - x124x78x1 
= 0
x44x124x2 + x8x124x2 + x15x124x2 + x18x124x2 
- x124x0x2

= 0



x44x137x2 + x8x137x2 + x15x137x2 + x18x137x2 
- x137x0x2

= 0




x32x198x3 + x15x198x3 
- x198x0x3
- x198x71x3 - x198x202x3 
= 0



x32x174x3 + x188x174x3 + x99x174x3 
- x174x0x3
- x174x69x3 - x174x150x3 
= 0



x145x189x3 
- x189x0x3
- x189x113x3 - x189x62x3 
= 0


x44x71x2 + x8x71x2 + x15x71x2 + x18x71x2 
- x71x0x2

= 0
x32x71x3 + x15x71x3 + x178x71x3 + x198x71x3 
- x71x0x3

= 0



x32x128x3 + x15x128x3 + x178x128x3 
- x128x0x3
- x128x202x3 
= 0



x32x113x3 + x145x113x3 + x189x113x3 
- x113x0x3
- x113x62x3 
= 0


x44x69x2 + x17x69x2 
- x69x0x2
- x69x150x2 
= 0
x32x69x3 + x188x69x3 + x99x69x3 + x174x69x3 
- x69x0x3
- x69x150x3 
= 0

x32x152x1 + x17x152x1 + x173x152x1 + x200x152x1 + x145x152x1 
- x152x0x1

= 0



x32x202x1 + x173x202x1 + x103x202x1 + x178x202x1 + x124x202x1 
- x202x0x1
- x202x161x1 
= 0

x32x202x3 + x15x202x3 + x178x202x3 + x198x202x3 + x128x202x3 
- x202x0x3

= 0



x32x62x3 + x145x62x3 + x189x62x3 + x113x62x3 
- x62x0x3

= 0


x44x86x2 + x8x86x2 + x173x86x2 + x15x86x2 
- x86x0x2
- x86x95x2 - x86x49x2 - x86x42x2 
= 0


x32x171x1 + x17x171x1 + x173x171x1 + x200x171x1 + x103x171x1 + x145x171x1 
- x171x0x1

= 0
x44x171x2 + x8x171x2 + x17x171x2 + x173x171x2 
- x171x0x2

= 0


x32x161x1 + x173x161x1 + x103x161x1 + x178x161x1 + x124x161x1 + x202x161x1 
- x161x0x1

= 0



x32x115x1 + x173x115x1 + x103x115x1 
- x115x0x1
- x115x95x1 - x115x42x1 - x115x78x1 
= 0

x32x115x3 + x15x115x3 
- x115x0x3
- x115x49x3 - x115x78x3 - x115x165x3 
= 0

x32x95x1 + x173x95x1 + x103x95x1 + x115x95x1 
- x95x0x1
- x95x42x1 - x95x78x1 
= 0
x44x95x2 + x8x95x2 + x173x95x2 + x15x95x2 + x86x95x2 
- x95x0x2
- x95x42x2 
= 0



x44x49x2 + x8x49x2 + x173x49x2 + x15x49x2 + x18x49x2 + x86x49x2 
- x49x0x2
- x49x42x2 
= 0
x32x49x3 + x15x49x3 + x115x49x3 
- x49x0x3
- x49x78x3 - x49x165x3 
= 0

x32x54x1 + x173x54x1 + x103x54x1 + x178x54x1 + x124x54x1 
- x54x0x1
- x54x78x1 
= 0

x32x54x3 + x15x54x3 + x178x54x3 
- x54x0x3
- x54x78x3 - x54x165x3 
= 0


x44x150x2 + x17x150x2 + x173x150x2 + x69x150x2 
- x150x0x2

= 0
x32x150x3 + x188x150x3 + x99x150x3 + x174x150x3 + x69x150x3 
- x150x0x3

= 0

x32x42x1 + x173x42x1 + x103x42x1 + x145x42x1 + x115x42x1 + x95x42x1 
- x42x0x1

= 0
x44x42x2 + x8x42x2 + x173x42x2 + x15x42x2 + x18x42x2 + x86x42x2 + x95x42x2 + x49x42x2 
- x42x0x2

= 0


x32x78x1 + x173x78x1 + x103x78x1 + x145x78x1 + x178x78x1 + x124x78x1 + x115x78x1 + x95x78x1 + x54x78x1 
- x78x0x1

= 0

x32x78x3 + x15x78x3 + x145x78x3 + x178x78x3 + x115x78x3 + x49x78x3 + x54x78x3 
- x78x0x3
- x78x165x3 
= 0



x32x165x3 + x15x165x3 + x145x165x3 + x178x165x3 + x115x165x3 + x49x165x3 + x54x165x3 + x78x165x3 
- x165x0x3

= 0

2y8 = 0
1y17 = 0
1y17 - x44x17x2 = 0
1y173 = 0
1y173 = 0
2y200 - x17x200x1 = 0
2y188 = 0
2y103 = 0
1y15 - x8x15x2 = 0
1y15 = 0
2y18 - x44x18x2 - x8x18x2 - x15x18x2 = 0
1y99 - x17x99x1 - x200x99x1 = 0
1y99 - x188x99x3 = 0
1y145 - x173x145x1 = 0
1y145 = 0
1y178 - x32x178x1 - x103x178x1 = 0
1y178 - x32x178x3 - x15x178x3 = 0
1y124 - x32x124x1 - x103x124x1 - x178x124x1 = 0
1y124 - x44x124x2 - x8x124x2 - x15x124x2 - x18x124x2 = 0
2y137 - x44x137x2 - x8x137x2 - x15x137x2 - x18x137x2 = 0
2y198 - x32x198x3 - x15x198x3 = 0
2y174 - x32x174x3 - x188x174x3 - x99x174x3 = 0
2y189 - x145x189x3 = 0
1y71 - x44x71x2 - x8x71x2 - x15x71x2 - x18x71x2 = 0
1y71 - x32x71x3 - x15x71x3 - x178x71x3 - x198x71x3 = 0
2y128 - x32x128x3 - x15x128x3 - x178x128x3 = 0
2y113 - x32x113x3 - x145x113x3 - x189x113x3 = 0
1y69 - x44x69x2 - x17x69x2 = 0
1y69 - x32x69x3 - x188x69x3 - x99x69x3 - x174x69x3 = 0
2y152 - x32x152x1 - x17x152x1 - x173x152x1 - x200x152x1 - x145x152x1 = 0
1y202 - x32x202x1 - x173x202x1 - x103x202x1 - x178x202x1 - x124x202x1 = 0
1y202 - x32x202x3 - x15x202x3 - x178x202x3 - x198x202x3 - x128x202x3 = 0
2y62 - x32x62x3 - x145x62x3 - x189x62x3 - x113x62x3 = 0
2y86 - x44x86x2 - x8x86x2 - x173x86x2 - x15x86x2 = 0
1y171 - x32x171x1 - x17x171x1 - x173x171x1 - x200x171x1 - x103x171x1 - x145x171x1 = 0
1y171 - x44x171x2 - x8x171x2 - x17x171x2 - x173x171x2 = 0
2y161 - x32x161x1 - x173x161x1 - x103x161x1 - x178x161x1 - x124x161x1 - x202x161x1 = 0
1y115 - x32x115x1 - x173x115x1 - x103x115x1 = 0
1y115 - x32x115x3 - x15x115x3 = 0
1y95 - x32x95x1 - x173x95x1 - x103x95x1 - x115x95x1 = 0
1y95 - x44x95x2 - x8x95x2 - x173x95x2 - x15x95x2 - x86x95x2 = 0
1y49 - x44x49x2 - x8x49x2 - x173x49x2 - x15x49x2 - x18x49x2 - x86x49x2 = 0
1y49 - x32x49x3 - x15x49x3 - x115x49x3 = 0
1y54 - x32x54x1 - x173x54x1 - x103x54x1 - x178x54x1 - x124x54x1 = 0
1y54 - x32x54x3 - x15x54x3 - x178x54x3 = 0
1y150 - x44x150x2 - x17x150x2 - x173x150x2 - x69x150x2 = 0
1y150 - x32x150x3 - x188x150x3 - x99x150x3 - x174x150x3 - x69x150x3 = 0
1y42 - x32x42x1 - x173x42x1 - x103x42x1 - x145x42x1 - x115x42x1 - x95x42x1 = 0
1y42 - x44x42x2 - x8x42x2 - x173x42x2 - x15x42x2 - x18x42x2 - x86x42x2 - x95x42x2 - x49x42x2 = 0
1y78 - x32x78x1 - x173x78x1 - x103x78x1 - x145x78x1 - x178x78x1 - x124x78x1 - x115x78x1 - x95x78x1 - x54x78x1 = 0
1y78 - x32x78x3 - x15x78x3 - x145x78x3 - x178x78x3 - x115x78x3 - x49x78x3 - x54x78x3 = 0
2y165 - x32x165x3 - x15x165x3 - x145x165x3 - x178x165x3 - x115x165x3 - x49x165x3 - x54x165x3 - x78x165x3 = 0

s44 - s17 + 8.873054z44z17z2 <= 7.70
s44 - s18 + 9.144227z44z18z2 <= 7.70
s44 - s124 + 9.177009z44z124z2 <= 7.70
s44 - s137 + 9.169621z44z137z2 <= 7.70
s44 - s71 + 9.162983z44z71z2 <= 7.70
s44 - s69 + 8.903437z44z69z2 <= 7.70
s44 - s86 + 9.255464z44z86z2 <= 7.70
s44 - s171 + 9.174387z44z171z2 <= 7.70
s44 - s95 + 9.273448z44z95z2 <= 7.70
s44 - s49 + 9.278896z44z49z2 <= 7.70
s44 - s150 + 8.916928z44z150z2 <= 7.70
s44 - s42 + 9.291185z44z42z2 <= 7.70
s32 - s178 + 9.156787z32z178z1 <= 7.82
s32 - s178 + 9.156787z32z178z3 <= 7.82
s32 - s124 + 9.175243z32z124z1 <= 7.82
s32 - s198 + 9.131035z32z198z3 <= 7.82
s32 - s174 + 9.231527z32z174z3 <= 7.82
s32 - s71 + 9.133080z32z71z3 <= 7.82
s32 - s128 + 9.182973z32z128z3 <= 7.82
s32 - s113 + 9.288351z32z113z3 <= 7.82
s32 - s69 + 9.238173z32z69z3 <= 7.82
s32 - s152 + 9.292060z32z152z1 <= 7.82
s32 - s202 + 9.196091z32z202z1 <= 7.82
s32 - s202 + 9.196091z32z202z3 <= 7.82
s32 - s62 + 9.297592z32z62z3 <= 7.82
s32 - s171 + 9.320792z32z171z1 <= 7.82
s32 - s161 + 9.221327z32z161z1 <= 7.82
s32 - s115 + 9.342970z32z115z1 <= 7.82
s32 - s115 + 9.342970z32z115z3 <= 7.82
s32 - s95 + 9.349560z32z95z1 <= 7.82
s32 - s49 + 9.346926z32z49z3 <= 7.82
s32 - s54 + 9.324220z32z54z1 <= 7.82
s32 - s54 + 9.324220z32z54z3 <= 7.82
s32 - s150 + 9.256903z32z150z3 <= 7.82
s32 - s42 + 9.370346z32z42z1 <= 7.82
s32 - s78 + 9.337536z32z78z1 <= 7.82
s32 - s78 + 9.337536z32z78z3 <= 7.82
s32 - s165 + 9.344572z32z165z3 <= 7.82
s8 - s15 + 9.997488z8z15z2 <= 8.97
s8 - s18 + 10.003334z8z18z2 <= 8.97
s8 - s124 + 10.056667z8z124z2 <= 8.97
s8 - s137 + 10.037987z8z137z2 <= 8.97
s8 - s71 + 10.022069z8z71z2 <= 8.97
s8 - s86 + 10.229402z8z86z2 <= 8.97
s8 - s171 + 10.314157z8z171z2 <= 8.97
s8 - s95 + 10.265297z8z95z2 <= 8.97
s8 - s49 + 10.256357z8z49z2 <= 8.97
s8 - s42 + 10.286087z8z42z2 <= 8.97
s17 - s200 + 10.007487z17z200z1 <= 8.98
s17 - s99 + 10.007487z17z99z1 <= 8.98
s17 - s69 + 10.046666z17z69z2 <= 8.98
s17 - s152 + 10.315261z17z152z1 <= 8.98
s17 - s171 + 10.376428z17z171z1 <= 8.98
s17 - s171 + 10.376428z17z171z2 <= 8.98
s17 - s150 + 10.079106z17z150z2 <= 8.98
s173 - s145 + 10.054722z173z145z1 <= 9.01
s173 - s152 + 10.078638z173z152z1 <= 9.01
s173 - s202 + 10.283659z173z202z1 <= 9.01
s173 - s86 + 10.217632z173z86z2 <= 9.01
s173 - s171 + 10.100677z173z171z1 <= 9.01
s173 - s171 + 10.100677z173z171z2 <= 9.01
s173 - s161 + 10.279650z173z161z1 <= 9.01
s173 - s115 + 10.214070z173z115z1 <= 9.01
s173 - s95 + 10.219337z173z95z1 <= 9.01
s173 - s95 + 10.219337z173z95z2 <= 9.01
s173 - s49 + 10.232011z173z49z2 <= 9.01
s173 - s54 + 10.242188z173z54z1 <= 9.01
s173 - s150 + 10.433426z173z150z2 <= 9.01
s173 - s42 + 10.231911z173z42z1 <= 9.01
s173 - s42 + 10.231911z173z42z2 <= 9.01
s173 - s78 + 10.250832z173z78z1 <= 9.01
s200 - s99 + 10.057140z200z99z1 <= 9.01
s200 - s152 + 10.317824z200z152z1 <= 9.01
s200 - s171 + 10.379084z200z171z1 <= 9.01
s188 - s99 + 10.098284z188z99z3 <= 9.07
s188 - s174 + 10.136666z188z174z3 <= 9.07
s188 - s69 + 10.140867z188z69z3 <= 9.07
s188 - s150 + 10.174136z188z150z3 <= 9.07
s103 - s178 + 10.122164z103z178z1 <= 9.08
s103 - s124 + 10.113994z103z124z1 <= 9.08
s103 - s202 + 10.128074z103z202z1 <= 9.08
s103 - s171 + 10.358568z103z171z1 <= 9.08
s103 - s161 + 10.142893z103z161z1 <= 9.08
s103 - s115 + 10.283525z103z115z1 <= 9.08
s103 - s95 + 10.289231z103z95z1 <= 9.08
s103 - s54 + 10.248654z103z54z1 <= 9.08
s103 - s42 + 10.309879z103z42z1 <= 9.08
s103 - s78 + 10.261353z103z78z1 <= 9.08
s15 - s18 + 10.123994z15z18z2 <= 9.09
s15 - s178 + 10.166012z15z178z3 <= 9.09
s15 - s124 + 10.187068z15z124z2 <= 9.09
s15 - s137 + 10.164536z15z137z2 <= 9.09
s15 - s198 + 10.130552z15z198z3 <= 9.09
s15 - s71 + 10.132164z15z71z2 <= 9.09
s15 - s71 + 10.132164z15z71z3 <= 9.09
s15 - s128 + 10.191980z15z128z3 <= 9.09
s15 - s202 + 10.205085z15z202z3 <= 9.09
s15 - s86 + 10.367849z15z86z2 <= 9.09
s15 - s115 + 10.398833z15z115z3 <= 9.09
s15 - s95 + 10.404467z15z95z2 <= 9.09
s15 - s49 + 10.394339z15z49z2 <= 9.09
s15 - s49 + 10.394339z15z49z3 <= 9.09
s15 - s54 + 10.361457z15z54z3 <= 9.09
s15 - s42 + 10.424996z15z42z2 <= 9.09
s15 - s78 + 10.373628z15z78z3 <= 9.09
s15 - s165 + 10.382423z15z165z3 <= 9.09
s18 - s124 + 10.223246z18z124z2 <= 9.16
s18 - s137 + 10.200552z18z137z2 <= 9.16
s18 - s71 + 10.181082z18z71z2 <= 9.16
s18 - s49 + 10.432111z18z49z2 <= 9.16
s18 - s42 + 10.463242z18z42z2 <= 9.16
s99 - s174 + 10.218873z99z174z3 <= 9.18
s99 - s69 + 10.222688z99z69z3 <= 9.18
s99 - s150 + 10.256012z99z150z3 <= 9.18
s145 - s189 + 10.223333z145z189z3 <= 9.21
s145 - s113 + 10.228856z145z113z3 <= 9.21
s145 - s152 + 10.234037z145z152z1 <= 9.21
s145 - s62 + 10.238284z145z62z3 <= 9.21
s145 - s171 + 10.277987z145z171z1 <= 9.21
s145 - s42 + 10.441036z145z42z1 <= 9.21
s145 - s78 + 10.470768z145z78z1 <= 9.21
s145 - s78 + 10.470768z145z78z3 <= 9.21
s145 - s165 + 10.468886z145z165z3 <= 9.21
s178 - s124 + 10.241082z178z124z1 <= 9.22
s178 - s71 + 10.267140z178z71z3 <= 9.22
s178 - s128 + 10.246667z178z128z3 <= 9.22
s178 - s202 + 10.260000z178z202z1 <= 9.22
s178 - s202 + 10.260000z178z202z3 <= 9.22
s178 - s161 + 10.287000z178z161z1 <= 9.22
s178 - s54 + 10.416864z178z54z1 <= 9.22
s178 - s54 + 10.416864z178z54z3 <= 9.22
s178 - s78 + 10.428699z178z78z1 <= 9.22
s178 - s78 + 10.428699z178z78z3 <= 9.22
s178 - s165 + 10.437665z178z165z3 <= 9.22
s124 - s202 + 10.271082z124z202z1 <= 9.25
s124 - s161 + 10.296667z124z161z1 <= 9.25
s124 - s54 + 10.426131z124z54z1 <= 9.25
s124 - s78 + 10.437853z124z78z1 <= 9.25
s198 - s71 + 10.256666z198z71z3 <= 9.25
s198 - s202 + 10.328032z198z202z3 <= 9.25
s174 - s69 + 10.266666z174z69z3 <= 9.26
s174 - s150 + 10.297712z174z150z3 <= 9.26
s189 - s113 + 10.283334z189z113z3 <= 9.27
s189 - s62 + 10.291082z189z62z3 <= 9.27
s128 - s202 + 10.313334z128z202z3 <= 9.30
s113 - s62 + 10.319428z113z62z3 <= 9.31
s69 - s150 + 10.363333z69z150z2 <= 9.33
s69 - s150 + 10.363333z69z150z3 <= 9.33
s202 - s161 + 10.367488z202z161z1 <= 9.34
s86 - s95 + 10.407712z86z95z2 <= 9.37
s86 - s49 + 10.397488z86z49z2 <= 9.37
s86 - s42 + 10.427349z86z42z2 <= 9.37
s115 - s95 + 10.406666z115z95z1 <= 9.40
s115 - s49 + 10.421082z115z49z3 <= 9.40
s115 - s42 + 10.427487z115z42z1 <= 9.40
s115 - s78 + 10.453333z115z78z1 <= 9.40
s115 - s78 + 10.453333z115z78z3 <= 9.40
s115 - s165 + 10.447140z115z165z3 <= 9.40
s95 - s42 + 10.441082z95z42z1 <= 9.42
s95 - s42 + 10.441082z95z42z2 <= 9.42
s95 - s78 + 10.473748z95z78z1 <= 9.42
s49 - s42 + 10.473333z49z42z2 <= 9.44
s49 - s78 + 10.473993z49z78z3 <= 9.44
s49 - s165 + 10.466666z49z165z3 <= 9.44
s54 - s78 + 10.453333z54z78z1 <= 9.44
s54 - s78 + 10.453333z54z78z3 <= 9.44
s54 - s165 + 10.461082z54z165z3 <= 9.44
s78 - s165 + 10.489428z78z165z3 <= 9.48

x44x17x2 - 1z44z17z2 <= 0
x44x18x2 - 2z44z18z2 <= 0
x44x124x2 - 1z44z124z2 <= 0
x44x137x2 - 2z44z137z2 <= 0
x44x71x2 - 1z44z71z2 <= 0
x44x69x2 - 1z44z69z2 <= 0
x44x86x2 - 2z44z86z2 <= 0
x44x171x2 - 1z44z171z2 <= 0
x44x95x2 - 1z44z95z2 <= 0
x44x49x2 - 1z44z49z2 <= 0
x44x150x2 - 1z44z150z2 <= 0
x44x42x2 - 1z44z42z2 <= 0
x32x178x1 - 1z32z178z1 <= 0
x32x178x3 - 1z32z178z3 <= 0
x32x124x1 - 1z32z124z1 <= 0
x32x198x3 - 2z32z198z3 <= 0
x32x174x3 - 2z32z174z3 <= 0
x32x71x3 - 1z32z71z3 <= 0
x32x128x3 - 2z32z128z3 <= 0
x32x113x3 - 2z32z113z3 <= 0
x32x69x3 - 1z32z69z3 <= 0
x32x152x1 - 2z32z152z1 <= 0
x32x202x1 - 1z32z202z1 <= 0
x32x202x3 - 1z32z202z3 <= 0
x32x62x3 - 2z32z62z3 <= 0
x32x171x1 - 1z32z171z1 <= 0
x32x161x1 - 2z32z161z1 <= 0
x32x115x1 - 1z32z115z1 <= 0
x32x115x3 - 1z32z115z3 <= 0
x32x95x1 - 1z32z95z1 <= 0
x32x49x3 - 1z32z49z3 <= 0
x32x54x1 - 1z32z54z1 <= 0
x32x54x3 - 1z32z54z3 <= 0
x32x150x3 - 1z32z150z3 <= 0
x32x42x1 - 1z32z42z1 <= 0
x32x78x1 - 1z32z78z1 <= 0
x32x78x3 - 1z32z78z3 <= 0
x32x165x3 - 2z32z165z3 <= 0
x8x15x2 - 1z8z15z2 <= 0
x8x18x2 - 2z8z18z2 <= 0
x8x124x2 - 1z8z124z2 <= 0
x8x137x2 - 2z8z137z2 <= 0
x8x71x2 - 1z8z71z2 <= 0
x8x86x2 - 2z8z86z2 <= 0
x8x171x2 - 1z8z171z2 <= 0
x8x95x2 - 1z8z95z2 <= 0
x8x49x2 - 1z8z49z2 <= 0
x8x42x2 - 1z8z42z2 <= 0
x8x0x2 <= 2
x17x200x1 - 2z17z200z1 <= 0
x17x99x1 - 1z17z99z1 <= 0
x17x69x2 - 1z17z69z2 <= 0
x17x152x1 - 2z17z152z1 <= 0
x17x171x1 - 1z17z171z1 <= 0
x17x171x2 - 1z17z171z2 <= 0
x17x150x2 - 1z17z150z2 <= 0
x17x0x1 <= 1
x17x0x2 <= 1
x173x145x1 - 1z173z145z1 <= 0
x173x152x1 - 2z173z152z1 <= 0
x173x202x1 - 1z173z202z1 <= 0
x173x86x2 - 2z173z86z2 <= 0
x173x171x1 - 1z173z171z1 <= 0
x173x171x2 - 1z173z171z2 <= 0
x173x161x1 - 2z173z161z1 <= 0
x173x115x1 - 1z173z115z1 <= 0
x173x95x1 - 1z173z95z1 <= 0
x173x95x2 - 1z173z95z2 <= 0
x173x49x2 - 1z173z49z2 <= 0
x173x54x1 - 1z173z54z1 <= 0
x173x150x2 - 1z173z150z2 <= 0
x173x42x1 - 1z173z42z1 <= 0
x173x42x2 - 1z173z42z2 <= 0
x173x78x1 - 1z173z78z1 <= 0
x173x0x1 <= 1
x173x0x2 <= 1
x200x99x1 - 1z200z99z1 <= 0
x200x152x1 - 2z200z152z1 <= 0
x200x171x1 - 1z200z171z1 <= 0
x200x0x1 <= 2
x188x99x3 - 1z188z99z3 <= 0
x188x174x3 - 2z188z174z3 <= 0
x188x69x3 - 1z188z69z3 <= 0
x188x150x3 - 1z188z150z3 <= 0
x188x0x3 <= 2
x103x178x1 - 1z103z178z1 <= 0
x103x124x1 - 1z103z124z1 <= 0
x103x202x1 - 1z103z202z1 <= 0
x103x171x1 - 1z103z171z1 <= 0
x103x161x1 - 2z103z161z1 <= 0
x103x115x1 - 1z103z115z1 <= 0
x103x95x1 - 1z103z95z1 <= 0
x103x54x1 - 1z103z54z1 <= 0
x103x42x1 - 1z103z42z1 <= 0
x103x78x1 - 1z103z78z1 <= 0
x103x0x1 <= 2
x15x18x2 - 2z15z18z2 <= 0
x15x178x3 - 1z15z178z3 <= 0
x15x124x2 - 1z15z124z2 <= 0
x15x137x2 - 2z15z137z2 <= 0
x15x198x3 - 2z15z198z3 <= 0
x15x71x2 - 1z15z71z2 <= 0
x15x71x3 - 1z15z71z3 <= 0
x15x128x3 - 2z15z128z3 <= 0
x15x202x3 - 1z15z202z3 <= 0
x15x86x2 - 2z15z86z2 <= 0
x15x115x3 - 1z15z115z3 <= 0
x15x95x2 - 1z15z95z2 <= 0
x15x49x2 - 1z15z49z2 <= 0
x15x49x3 - 1z15z49z3 <= 0
x15x54x3 - 1z15z54z3 <= 0
x15x42x2 - 1z15z42z2 <= 0
x15x78x3 - 1z15z78z3 <= 0
x15x165x3 - 2z15z165z3 <= 0
x15x0x2 <= 1
x15x0x3 <= 1
x18x124x2 - 1z18z124z2 <= 0
x18x137x2 - 2z18z137z2 <= 0
x18x71x2 - 1z18z71z2 <= 0
x18x49x2 - 1z18z49z2 <= 0
x18x42x2 - 1z18z42z2 <= 0
x18x0x2 <= 2
x99x174x3 - 2z99z174z3 <= 0
x99x69x3 - 1z99z69z3 <= 0
x99x150x3 - 1z99z150z3 <= 0
x99x0x1 <= 1
x99x0x3 <= 1
x145x189x3 - 2z145z189z3 <= 0
x145x113x3 - 2z145z113z3 <= 0
x145x152x1 - 2z145z152z1 <= 0
x145x62x3 - 2z145z62z3 <= 0
x145x171x1 - 1z145z171z1 <= 0
x145x42x1 - 1z145z42z1 <= 0
x145x78x1 - 1z145z78z1 <= 0
x145x78x3 - 1z145z78z3 <= 0
x145x165x3 - 2z145z165z3 <= 0
x145x0x1 <= 1
x145x0x3 <= 1
x178x124x1 - 1z178z124z1 <= 0
x178x71x3 - 1z178z71z3 <= 0
x178x128x3 - 2z178z128z3 <= 0
x178x202x1 - 1z178z202z1 <= 0
x178x202x3 - 1z178z202z3 <= 0
x178x161x1 - 2z178z161z1 <= 0
x178x54x1 - 1z178z54z1 <= 0
x178x54x3 - 1z178z54z3 <= 0
x178x78x1 - 1z178z78z1 <= 0
x178x78x3 - 1z178z78z3 <= 0
x178x165x3 - 2z178z165z3 <= 0
x178x0x1 <= 1
x178x0x3 <= 1
x124x202x1 - 1z124z202z1 <= 0
x124x161x1 - 2z124z161z1 <= 0
x124x54x1 - 1z124z54z1 <= 0
x124x78x1 - 1z124z78z1 <= 0
x124x0x1 <= 1
x124x0x2 <= 1
x137x0x2 <= 2
x198x71x3 - 1z198z71z3 <= 0
x198x202x3 - 1z198z202z3 <= 0
x198x0x3 <= 2
x174x69x3 - 1z174z69z3 <= 0
x174x150x3 - 1z174z150z3 <= 0
x174x0x3 <= 2
x189x113x3 - 2z189z113z3 <= 0
x189x62x3 - 2z189z62z3 <= 0
x189x0x3 <= 2
x71x0x2 <= 1
x71x0x3 <= 1
x128x202x3 - 1z128z202z3 <= 0
x128x0x3 <= 2
x113x62x3 - 2z113z62z3 <= 0
x113x0x3 <= 2
x69x150x2 - 1z69z150z2 <= 0
x69x150x3 - 1z69z150z3 <= 0
x69x0x2 <= 1
x69x0x3 <= 1
x152x0x1 <= 2
x202x161x1 - 2z202z161z1 <= 0
x202x0x1 <= 1
x202x0x3 <= 1
x62x0x3 <= 2
x86x95x2 - 1z86z95z2 <= 0
x86x49x2 - 1z86z49z2 <= 0
x86x42x2 - 1z86z42z2 <= 0
x86x0x2 <= 2
x171x0x1 <= 1
x171x0x2 <= 1
x161x0x1 <= 2
x115x95x1 - 1z115z95z1 <= 0
x115x49x3 - 1z115z49z3 <= 0
x115x42x1 - 1z115z42z1 <= 0
x115x78x1 - 1z115z78z1 <= 0
x115x78x3 - 1z115z78z3 <= 0
x115x165x3 - 2z115z165z3 <= 0
x115x0x1 <= 1
x115x0x3 <= 1
x95x42x1 - 1z95z42z1 <= 0
x95x42x2 - 1z95z42z2 <= 0
x95x78x1 - 1z95z78z1 <= 0
x95x0x1 <= 1
x95x0x2 <= 1
x49x42x2 - 1z49z42z2 <= 0
x49x78x3 - 1z49z78z3 <= 0
x49x165x3 - 2z49z165z3 <= 0
x49x0x2 <= 1
x49x0x3 <= 1
x54x78x1 - 1z54z78z1 <= 0
x54x78x3 - 1z54z78z3 <= 0
x54x165x3 - 2z54z165z3 <= 0
x54x0x1 <= 1
x54x0x3 <= 1
x150x0x2 <= 1
x150x0x3 <= 1
x42x0x1 <= 1
x42x0x2 <= 1
x78x165x3 - 2z78z165z3 <= 0
x78x0x1 <= 1
x78x0x3 <= 1
x165x0x3 <= 2

Bounds
s44 = 7.701007
s32 = 7.816852
s39 = 8.287767
s67 = 8.590506
s57 = 8.626606
s177 = 8.610439
s107 = 8.477267
s140 = 8.457559
s192 = 8.433877
7.970000 <= s8 <= 8.970000
7.980000 <= s17 <= 8.980000
8.010000 <= s173 <= 9.010000
8.010000 <= s200 <= 9.010000
8.070000 <= s188 <= 9.070000
8.080000 <= s103 <= 9.080000
8.090000 <= s15 <= 9.090000
8.160000 <= s18 <= 9.160000
8.180000 <= s99 <= 9.180000
8.210000 <= s145 <= 9.210000
8.220000 <= s178 <= 9.220000
8.250000 <= s124 <= 9.250000
8.250000 <= s137 <= 9.250000
8.250000 <= s198 <= 9.250000
8.260000 <= s174 <= 9.260000
8.270000 <= s189 <= 9.270000
8.290000 <= s71 <= 9.290000
8.300000 <= s128 <= 9.300000
8.310000 <= s113 <= 9.310000
8.330000 <= s69 <= 9.330000
8.340000 <= s152 <= 9.340000
8.340000 <= s202 <= 9.340000
8.360000 <= s62 <= 9.360000
8.370000 <= s86 <= 9.370000
8.380000 <= s171 <= 9.380000
8.390000 <= s161 <= 9.390000
8.400000 <= s115 <= 9.400000
8.420000 <= s95 <= 9.420000
8.440000 <= s49 <= 9.440000
8.440000 <= s54 <= 9.440000
8.450000 <= s150 <= 9.450000
8.480000 <= s42 <= 9.480000
8.480000 <= s78 <= 9.480000
8.490000 <= s165 <= 9.490000

General
x44x17x2 x44x18x2 x44x124x2 x44x137x2 x44x71x2 x44x69x2 x44x86x2 x44x171x2 x44x95x2 x44x49x2 x44x150x2 x44x42x2 
x32x178x1 x32x178x3 x32x124x1 x32x198x3 x32x174x3 x32x71x3 x32x128x3 x32x113x3 x32x69x3 x32x152x1 x32x202x1 x32x202x3 x32x62x3 x32x171x1 x32x161x1 x32x115x1 x32x115x3 x32x95x1 x32x49x3 x32x54x1 x32x54x3 x32x150x3 x32x42x1 x32x78x1 x32x78x3 x32x165x3 







x8x15x2 x8x18x2 x8x124x2 x8x137x2 x8x71x2 x8x86x2 x8x171x2 x8x95x2 x8x49x2 x8x42x2 x8x0x2 
x17x200x1 x17x99x1 x17x69x2 x17x152x1 x17x171x1 x17x171x2 x17x150x2 x17x0x1 x17x0x2 
x173x145x1 x173x152x1 x173x202x1 x173x86x2 x173x171x1 x173x171x2 x173x161x1 x173x115x1 x173x95x1 x173x95x2 x173x49x2 x173x54x1 x173x150x2 x173x42x1 x173x42x2 x173x78x1 x173x0x1 x173x0x2 
x200x99x1 x200x152x1 x200x171x1 x200x0x1 
x188x99x3 x188x174x3 x188x69x3 x188x150x3 x188x0x3 
x103x178x1 x103x124x1 x103x202x1 x103x171x1 x103x161x1 x103x115x1 x103x95x1 x103x54x1 x103x42x1 x103x78x1 x103x0x1 
x15x18x2 x15x178x3 x15x124x2 x15x137x2 x15x198x3 x15x71x2 x15x71x3 x15x128x3 x15x202x3 x15x86x2 x15x115x3 x15x95x2 x15x49x2 x15x49x3 x15x54x3 x15x42x2 x15x78x3 x15x165x3 x15x0x2 x15x0x3 
x18x124x2 x18x137x2 x18x71x2 x18x49x2 x18x42x2 x18x0x2 
x99x174x3 x99x69x3 x99x150x3 x99x0x1 x99x0x3 
x145x189x3 x145x113x3 x145x152x1 x145x62x3 x145x171x1 x145x42x1 x145x78x1 x145x78x3 x145x165x3 x145x0x1 x145x0x3 
x178x124x1 x178x71x3 x178x128x3 x178x202x1 x178x202x3 x178x161x1 x178x54x1 x178x54x3 x178x78x1 x178x78x3 x178x165x3 x178x0x1 x178x0x3 
x124x202x1 x124x161x1 x124x54x1 x124x78x1 x124x0x1 x124x0x2 
x137x0x2 
x198x71x3 x198x202x3 x198x0x3 
x174x69x3 x174x150x3 x174x0x3 
x189x113x3 x189x62x3 x189x0x3 
x71x0x2 x71x0x3 
x128x202x3 x128x0x3 
x113x62x3 x113x0x3 
x69x150x2 x69x150x3 x69x0x2 x69x0x3 
x152x0x1 
x202x161x1 x202x0x1 x202x0x3 
x62x0x3 
x86x95x2 x86x49x2 x86x42x2 x86x0x2 
x171x0x1 x171x0x2 
x161x0x1 
x115x95x1 x115x49x3 x115x42x1 x115x78x1 x115x78x3 x115x165x3 x115x0x1 x115x0x3 
x95x42x1 x95x42x2 x95x78x1 x95x0x1 x95x0x2 
x49x42x2 x49x78x3 x49x165x3 x49x0x2 x49x0x3 
x54x78x1 x54x78x3 x54x165x3 x54x0x1 x54x0x3 
x150x0x2 x150x0x3 
x42x0x1 x42x0x2 
x78x165x3 x78x0x1 x78x0x3 
x165x0x3 

Binaries
y8 y17 y173 y200 y188 y103 y15 y18 y99 y145 y178 y124 y137 y198 y174 y189 y71 y128 y113 y69 y152 y202 y62 y86 y171 y161 y115 y95 y49 y54 y150 y42 y78 y165 
z44z17z2 z44z18z2 z44z124z2 z44z137z2 z44z71z2 z44z69z2 z44z86z2 z44z171z2 z44z95z2 z44z49z2 z44z150z2 z44z42z2 
z32z178z1 z32z178z3 z32z124z1 z32z198z3 z32z174z3 z32z71z3 z32z128z3 z32z113z3 z32z69z3 z32z152z1 z32z202z1 z32z202z3 z32z62z3 z32z171z1 z32z161z1 z32z115z1 z32z115z3 z32z95z1 z32z49z3 z32z54z1 z32z54z3 z32z150z3 z32z42z1 z32z78z1 z32z78z3 z32z165z3 







z8z15z2 z8z18z2 z8z124z2 z8z137z2 z8z71z2 z8z86z2 z8z171z2 z8z95z2 z8z49z2 z8z42z2 
z17z200z1 z17z99z1 z17z69z2 z17z152z1 z17z171z1 z17z171z2 z17z150z2 
z173z145z1 z173z152z1 z173z202z1 z173z86z2 z173z171z1 z173z171z2 z173z161z1 z173z115z1 z173z95z1 z173z95z2 z173z49z2 z173z54z1 z173z150z2 z173z42z1 z173z42z2 z173z78z1 
z200z99z1 z200z152z1 z200z171z1 
z188z99z3 z188z174z3 z188z69z3 z188z150z3 
z103z178z1 z103z124z1 z103z202z1 z103z171z1 z103z161z1 z103z115z1 z103z95z1 z103z54z1 z103z42z1 z103z78z1 
z15z18z2 z15z178z3 z15z124z2 z15z137z2 z15z198z3 z15z71z2 z15z71z3 z15z128z3 z15z202z3 z15z86z2 z15z115z3 z15z95z2 z15z49z2 z15z49z3 z15z54z3 z15z42z2 z15z78z3 z15z165z3 
z18z124z2 z18z137z2 z18z71z2 z18z49z2 z18z42z2 
z99z174z3 z99z69z3 z99z150z3 
z145z189z3 z145z113z3 z145z152z1 z145z62z3 z145z171z1 z145z42z1 z145z78z1 z145z78z3 z145z165z3 
z178z124z1 z178z71z3 z178z128z3 z178z202z1 z178z202z3 z178z161z1 z178z54z1 z178z54z3 z178z78z1 z178z78z3 z178z165z3 
z124z202z1 z124z161z1 z124z54z1 z124z78z1 

z198z71z3 z198z202z3 
z174z69z3 z174z150z3 
z189z113z3 z189z62z3 

z128z202z3 
z113z62z3 
z69z150z2 z69z150z3 

z202z161z1 

z86z95z2 z86z49z2 z86z42z2 


z115z95z1 z115z49z3 z115z42z1 z115z78z1 z115z78z3 z115z165z3 
z95z42z1 z95z42z2 z95z78z1 
z49z42z2 z49z78z3 z49z165z3 
z54z78z1 z54z78z3 z54z165z3 


z78z165z3 


End